(declare-fun temp485_1 () (_ BitVec 64))
(declare-fun temp485_2 () (_ BitVec 64))
(declare-fun var86356 () (_ BitVec 64))
(declare-fun k!0 () Bool)
(declare-fun ARGNAME_input_NAMEEND_DIM () (_ BitVec 64))
(declare-fun temp485_3 () (_ BitVec 64))
(declare-fun var330412 () (_ BitVec 64))
(declare-fun var330420 () (_ BitVec 64))
(declare-fun temp485_5 () (_ BitVec 64))
(declare-fun temp485_4 () (_ BitVec 64))
(declare-fun temp485_7 () (_ BitVec 64))
(declare-fun temp485_6 () (_ BitVec 64))
(declare-fun temp485_9 () (_ BitVec 64))
(declare-fun temp485_8 () (_ BitVec 64))
(declare-fun temp485_10 () (_ BitVec 64))
(declare-fun var2755911 () (_ BitVec 64))
(declare-fun var2821458 () (_ BitVec 64))
(declare-fun var2624397 () (_ BitVec 64))
(declare-fun temp485_11 () (_ BitVec 64))
(declare-fun var3410604 () (_ BitVec 64))
(declare-fun var3410612 () (_ BitVec 64))
(declare-fun temp485_12 () (_ BitVec 64))
(declare-fun var3691388 () (_ BitVec 64))
(declare-fun var3691398 () (_ BitVec 64))
(declare-fun temp485_13 () (_ BitVec 64))
(declare-fun var6181756 () (_ BitVec 64))
(declare-fun var6181766 () (_ BitVec 64))
(declare-fun temp485_14 () (_ BitVec 64))
(declare-fun var9112236 () (_ BitVec 64))
(declare-fun var9112244 () (_ BitVec 64))
(declare-fun temp485_15 () (_ BitVec 64))
(declare-fun var9393020 () (_ BitVec 64))
(declare-fun var9393030 () (_ BitVec 64))
(declare-fun temp485_16 () (_ BitVec 64))
(declare-fun var12323500 () (_ BitVec 64))
(declare-fun temp485_17 () (_ BitVec 64))
(declare-fun var12524569 () (_ BitVec 64))
(declare-fun temp485_19 () (_ BitVec 64))
(declare-fun temp485_18 () (_ BitVec 64))
(declare-fun temp485_20 () (_ BitVec 64))
(declare-fun var12793416 () (_ BitVec 64))
(declare-fun temp485_21 () (_ BitVec 64))
(declare-fun var12793523 () (_ BitVec 64))
(declare-fun temp485_22 () (_ BitVec 64))
(declare-fun temp485_23 () (_ BitVec 64))
(declare-fun var13961900 () (_ BitVec 64))
(declare-fun temp485_24 () (_ BitVec 64))
(declare-fun var14224044 () (_ BitVec 64))
(declare-fun temp485_26 () (_ BitVec 64))
(declare-fun temp485_25 () (_ BitVec 64))
(assert (= temp485_1 #x0000000000000000))
(assert (= var86356
   (ite (= ARGNAME_input_NAMEEND_DIM temp485_1)
        #x0000000000000001
        #x0000000000000000)))
(assert (= temp485_2 #x0000000000000000))
(assert (= var86356 temp485_2))
(assert (= temp485_3 #x0000000000000002))
(assert (= var330412 temp485_3))
(assert (= var330420 var330412))
(assert (= temp485_5 #x0000000000000000))
(assert (= temp485_4 temp485_5))
(assert (= temp485_7 #xffffffffffffffff))
(assert (= temp485_6 temp485_7))
(assert (= temp485_9 #x0000000000000000))
(assert (= temp485_8 temp485_9))
(assert (= temp485_10 #x0000000000000000))
(assert (= var2755911 temp485_10))
(assert (= var2821458 var2755911))
(assert (= var2624397 var2821458))
(assert (= temp485_11 #x0000000000000002))
(assert (= var3410604 temp485_11))
(assert (= var3410612 var3410604))
(assert (= temp485_12 #x0000000000000001))
(assert (= var3691388 temp485_12))
(assert (= var3691398 var3691388))
(assert (= temp485_13 #x0000000000000001))
(assert (= var6181756 temp485_13))
(assert (= var6181766 var6181756))
(assert (= temp485_14 #x0000000000000002))
(assert (= var9112236 temp485_14))
(assert (= var9112244 var9112236))
(assert (= temp485_15 #x0000000000000001))
(assert (= var9393020 temp485_15))
(assert (= var9393030 var9393020))
(assert (= temp485_16 #x0000000000000002))
(assert (= var12323500 temp485_16))
(assert (= temp485_17 #x0000000000000005))
(assert (= var12524569 temp485_17))
(assert (= temp485_19 #x0000000000000000))
(assert (= temp485_18 temp485_19))
(assert (= temp485_20 #x0000000000000001))
(assert (= var12793416 (bvadd temp485_18 temp485_20)))
(assert (= temp485_21 #x0000000000000000))
(assert (= var12793523 temp485_21))
(assert (= temp485_22 #x0000000000000000))
(assert (= var12793523 temp485_22))
(assert (= temp485_23 #x0000000000000002))
(assert (= var13961900 temp485_23))
(assert (= temp485_24 #x0000000000000001))
(assert (= var14224044 temp485_24))
(assert (= temp485_26 #x0000000000000000))
(assert (= temp485_25 temp485_26))
(model-add temp485_1 () (_ BitVec 64) #x0000000000000000)
(model-add temp485_2 () (_ BitVec 64) #x0000000000000000)
(model-add var86356 () (_ BitVec 64) #x0000000000000000)
(model-del k!0)
(model-add ARGNAME_input_NAMEEND_DIM
           ()
           (_ BitVec 64)
           (ite k!0 #x0000000000000000 (bvnot #x0000000000000000)))




